aux_benchmarks/lp2sat/smokers_6_4_prob.lp.lp.cnf
p cnf 187 546
14 44 0
-14 -44 0
-56 -15 -65 0
-56 15 0
-57 -15 -65 0
-57 15 0
69 -14 0
-69 14 0
130 -69 0
-130 69 0
65 -69 0
-65 69 0
70 -19 -25 0
-70 19 0
-70 25 0
131 -70 0
-131 70 0
132 -56 -70 60 0
-132 56 0
-132 70 0
-132 -60 0
133 -73 -70 60 56 0
-133 73 0
-133 70 0
-133 -60 0
-133 -56 0
134 -73 -60 -56 -70 0
-134 73 0
-134 60 0
-134 56 0
-134 70 0
73 -57 -70 61 0
-73 57 0
-73 70 0
-73 -61 0
71 -70 -72 0
-71 70 0
-71 72 0
67 -71 65 0
-67 71 0
-67 -65 0
135 -60 -56 -70 0
-135 60 0
-135 56 0
-135 70 0
136 -70 60 56 0
-136 70 0
-136 -60 0
-136 -56 0
75 -56 -70 60 0
-75 56 0
-75 70 0
-75 -60 0
137 -74 -57 -70 61 0
-137 74 0
-137 57 0
-137 70 0
-137 -61 0
138 -75 -61 -70 57 0
-138 75 0
-138 61 0
-138 70 0
-138 -57 0
-71 76 0
68 -70 -76 0
-68 70 0
-68 76 0
-67 68 0
-15 67 65 0
16 45 0
-16 -45 0
-58 -17 -78 0
-58 17 0
-59 -17 -78 0
-59 17 0
82 -16 0
-82 16 0
139 -82 0
-139 82 0
78 -82 0
-78 82 0
83 -19 -23 0
-83 19 0
-83 23 0
140 -83 0
-140 83 0
141 -58 -83 60 0
-141 58 0
-141 83 0
-141 -60 0
142 -86 -83 60 58 0
-142 86 0
-142 83 0
-142 -60 0
-142 -58 0
143 -86 -60 -58 -83 0
-143 86 0
-143 60 0
-143 58 0
-143 83 0
86 -59 -83 61 0
-86 59 0
-86 83 0
-86 -61 0
84 -83 -85 0
-84 83 0
-84 85 0
80 -84 78 0
-80 84 0
-80 -78 0
144 -60 -58 -83 0
-144 60 0
-144 58 0
-144 83 0
145 -83 60 58 0
-145 83 0
-145 -60 0
-145 -58 0
88 -58 -83 60 0
-88 58 0
-88 83 0
-88 -60 0
146 -87 -59 -83 61 0
-146 87 0
-146 59 0
-146 83 0
-146 -61 0
147 -88 -61 -83 59 0
-147 88 0
-147 61 0
-147 83 0
-147 -59 0
-84 89 0
81 -83 -89 0
-81 83 0
-81 89 0
-80 81 0
-17 80 78 0
18 46 0
-18 -46 0
-60 -19 -91 0
-60 19 0
-61 -19 -91 0
-61 19 0
95 -18 0
-95 18 0
148 -95 0
-148 95 0
91 -95 0
-91 95 0
96 -17 -24 0
-96 17 0
-96 24 0
149 -96 0
-149 96 0
150 -60 -96 58 0
-150 60 0
-150 96 0
-150 -58 0
151 -99 -96 58 60 0
-151 99 0
-151 96 0
-151 -58 0
-151 -60 0
152 -99 -58 -60 -96 0
-152 99 0
-152 58 0
-152 60 0
-152 96 0
99 -61 -96 59 0
-99 61 0
-99 96 0
-99 -59 0
97 -96 -98 0
-97 96 0
-97 98 0
153 -97 91 0
-153 97 0
-153 -91 0
154 -58 -60 -96 0
-154 58 0
-154 60 0
-154 96 0
155 -96 58 60 0
-155 96 0
-155 -58 0
-155 -60 0
101 -60 -96 58 0
-101 60 0
-101 96 0
-101 -58 0
156 -100 -61 -96 59 0
-156 100 0
-156 61 0
-156 96 0
-156 -59 0
157 -101 -59 -96 61 0
-157 101 0
-157 59 0
-157 96 0
-157 -61 0
-97 102 0
158 -96 -102 0
-158 96 0
-158 102 0
103 -21 -22 0
-103 21 0
-103 22 0
159 -103 0
-159 103 0
160 -60 -103 62 0
-160 60 0
-160 103 0
-160 -62 0
161 -106 -103 62 60 0
-161 106 0
-161 103 0
-161 -62 0
-161 -60 0
162 -106 -62 -60 -103 0
-162 106 0
-162 62 0
-162 60 0
-162 103 0
106 -61 -103 63 0
-106 61 0
-106 103 0
-106 -63 0
104 -103 -105 0
-104 103 0
-104 105 0
163 -104 91 0
-163 104 0
-163 -91 0
164 -62 -60 -103 0
-164 62 0
-164 60 0
-164 103 0
165 -103 62 60 0
-165 103 0
-165 -62 0
-165 -60 0
108 -60 -103 62 0
-108 60 0
-108 103 0
-108 -62 0
166 -107 -61 -103 63 0
-166 107 0
-166 61 0
-166 103 0
-166 -63 0
167 -108 -63 -103 61 0
-167 108 0
-167 63 0
-167 103 0
-167 -61 0
-104 109 0
168 -103 -109 0
-168 103 0
-168 109 0
110 -15 -26 0
-110 15 0
-110 26 0
169 -110 0
-169 110 0
170 -60 -110 56 0
-170 60 0
-170 110 0
-170 -56 0
171 -113 -110 56 60 0
-171 113 0
-171 110 0
-171 -56 0
-171 -60 0
172 -113 -56 -60 -110 0
-172 113 0
-172 56 0
-172 60 0
-172 110 0
113 -61 -110 57 0
-113 61 0
-113 110 0
-113 -57 0
111 -110 -112 0
-111 110 0
-111 112 0
173 -111 91 0
-173 111 0
-173 -91 0
174 -56 -60 -110 0
-174 56 0
-174 60 0
-174 110 0
175 -110 56 60 0
-175 110 0
-175 -56 0
-175 -60 0
115 -60 -110 56 0
-115 60 0
-115 110 0
-115 -56 0
176 -114 -61 -110 57 0
-176 114 0
-176 61 0
-176 110 0
-176 -57 0
177 -115 -57 -110 61 0
-177 115 0
-177 57 0
-177 110 0
-177 -61 0
-111 116 0
178 -110 -116 0
-178 110 0
-178 116 0
-93 94 0
-19 93 91 0
20 47 0
-20 -47 0
-62 -21 -118 0
-62 21 0
-63 -21 -118 0
-63 21 0
122 -20 0
-122 20 0
179 -122 0
-179 122 0
118 -122 0
-118 122 0
123 -19 -27 0
-123 19 0
-123 27 0
180 -123 0
-180 123 0
181 -62 -123 60 0
-181 62 0
-181 123 0
-181 -60 0
182 -126 -123 60 62 0
-182 126 0
-182 123 0
-182 -60 0
-182 -62 0
183 -126 -60 -62 -123 0
-183 126 0
-183 60 0
-183 62 0
-183 123 0
126 -63 -123 61 0
-126 63 0
-126 123 0
-126 -61 0
124 -123 -125 0
-124 123 0
-124 125 0
120 -124 118 0
-120 124 0
-120 -118 0
184 -60 -62 -123 0
-184 60 0
-184 62 0
-184 123 0
185 -123 60 62 0
-185 123 0
-185 -60 0
-185 -62 0
128 -62 -123 60 0
-128 62 0
-128 123 0
-128 -60 0
186 -127 -63 -123 61 0
-186 127 0
-186 63 0
-186 123 0
-186 -61 0
187 -128 -61 -123 63 0
-187 128 0
-187 61 0
-187 123 0
-187 -63 0
-124 129 0
121 -123 -129 0
-121 123 0
-121 129 0
-120 121 0
-21 120 118 0
22 48 0
-22 -48 0
23 49 0
-23 -49 0
24 50 0
-24 -50 0
25 51 0
-25 -51 0
26 52 0
-26 -52 0
27 53 0
-27 -53 0
28 54 0
-28 -54 0
29 -28 0
-29 28 0
30 55 0
-30 -55 0
31 -30 0
-31 30 0
32 0
33 0
34 0
35 0
36 0
37 0
38 0
39 0
40 0
41 0
42 0
43 0
44 14 0
-44 -14 0
45 16 0
-45 -16 0
46 18 0
-46 -18 0
47 20 0
-47 -20 0
48 22 0
-48 -22 0
49 23 0
-49 -23 0
50 24 0
-50 -24 0
51 25 0
-51 -25 0
52 26 0
-52 -26 0
53 27 0
-53 -27 0
54 28 0
-54 -28 0
55 30 0
-55 -30 0
-1 0
-1 0
-2 0
-3 0
-4 0
-5 0
-6 0
-7 0
-8 0
-9 0
-10 0
-11 0
-12 0
-13 0
-15 130 131 0
15 -130 0
15 -131 0
-17 139 140 0
17 -139 0
17 -140 0
-19 148 149 159 169 0
19 -148 0
19 -149 0
19 -159 0
19 -169 0
-21 179 180 0
21 -179 0
21 -180 0
-64 0
-66 0
-72 132 133 134 0
72 -132 0
72 -133 0
72 -134 0
-74 135 136 0
74 -135 0
74 -136 0
-76 137 138 0
76 -137 0
76 -138 0
-77 0
-79 0
-85 141 142 143 0
85 -141 0
85 -142 0
85 -143 0
-87 144 145 0
87 -144 0
87 -145 0
-89 146 147 0
89 -146 0
89 -147 0
-90 0
-92 0
-93 153 163 173 0
93 -153 0
93 -163 0
93 -173 0
-94 158 168 178 0
94 -158 0
94 -168 0
94 -178 0
-98 150 151 152 0
98 -150 0
98 -151 0
98 -152 0
-100 154 155 0
100 -154 0
100 -155 0
-102 156 157 0
102 -156 0
102 -157 0
-105 160 161 162 0
105 -160 0
105 -161 0
105 -162 0
-107 164 165 0
107 -164 0
107 -165 0
-109 166 167 0
109 -166 0
109 -167 0
-112 170 171 172 0
112 -170 0
112 -171 0
112 -172 0
-114 174 175 0
114 -174 0
114 -175 0
-116 176 177 0
116 -176 0
116 -177 0
-117 0
-119 0
-125 181 182 183 0
125 -181 0
125 -182 0
125 -183 0
-127 184 185 0
127 -184 0
127 -185 0
-129 186 187 0
129 -186 0
129 -187 0
c p auxilliary 1 2 3 4 5 6 7 8 9 10 11 12 13 44 45 46 47 48 49 50 51 52 53 54 55 56 57 58 59 60 61 62 63 64 65 66 67 68 69 70 71 72 73 74 75 76 77 78 79 80 81 82 83 84 85 86 87 88 89 90 91 92 93 94 95 96 97 98 99 100 101 102 103 104 105 106 107 108 109 110 111 112 113 114 115 116 117 118 119 120 121 122 123 124 125 126 127 128 129 130 131 132 133 134 135 136 137 138 139 140 141 142 143 144 145 146 147 148 149 150 151 152 153 154 155 156 157 158 159 160 161 162 163 164 165 166 167 168 169 170 171 172 173 174 175 176 177 178 179 180 181 182 183 184 185 186 187 0
