aux_benchmarks/smokers/smokers_6_4_prob.lp.cnf
p cnf 66 108
34 0
35 0
36 0
37 0
38 0
39 0
40 0
41 0
42 0
43 0
44 0
45 0
46 -33 0
-46 33 0
47 -25 -21 0
-47 25 0
-47 21 0
48 -16 0
-48 16 0
49 -26 -21 0
-49 26 0
-49 21 0
50 -31 0
-50 31 0
51 -32 0
-51 32 0
52 -27 -21 0
-52 27 0
-52 21 0
53 -29 -31 0
-53 29 0
-53 31 0
54 -28 -32 0
-54 28 0
-54 32 0
55 -22 0
-55 22 0
56 -30 -33 0
-56 30 0
-56 33 0
57 -23 0
-57 23 0
58 -18 0
-58 18 0
59 -20 0
-59 20 0
60 -14 0
-60 14 0
-61 47 46 0
61 -47 0
61 -46 0
-33 60 0
33 -60 0
-13 61 0
13 -61 0
-62 52 51 0
62 -52 0
62 -51 0
-19 62 0
19 -62 0
-63 56 54 0
63 -56 0
63 -54 0
-32 59 0
32 -59 0
-64 63 53 0
64 -63 0
64 -53 0
-31 58 0
31 -58 0
-65 50 49 0
65 -50 0
65 -49 0
-17 65 0
17 -65 0
-24 57 0
24 -57 0
-15 48 0
15 -48 0
-1 34 0
1 -34 0
-2 35 0
2 -35 0
-6 39 0
6 -39 0
-7 40 0
7 -40 0
-8 41 0
8 -41 0
-9 42 0
9 -42 0
-3 36 0
3 -36 0
-10 43 0
10 -43 0
-11 44 0
11 -44 0
-12 45 0
12 -45 0
-4 37 0
4 -37 0
-5 38 0
5 -38 0
-66 64 55 0
66 -64 0
66 -55 0
-21 66 0
21 -66 0
c p weight 1 1.0;1.0;1.0;1.0;1.0;1.0 0
c p weight -1 1.0;1.0;1.0;1.0;1.0;1.0 0
c p weight 2 1.0;1.0;1.0;1.0;1.0;1.0 0
c p weight -2 1.0;1.0;1.0;1.0;1.0;1.0 0
c p weight 3 1.0;1.0;1.0;1.0;1.0;1.0 0
c p weight -3 1.0;1.0;1.0;1.0;1.0;1.0 0
c p weight 4 1.0;1.0;1.0;1.0;1.0;1.0 0
c p weight -4 1.0;1.0;1.0;1.0;1.0;1.0 0
c p weight 5 1.0;1.0;1.0;1.0;1.0;1.0 0
c p weight -5 1.0;1.0;1.0;1.0;1.0;1.0 0
c p weight 6 1.0;1.0;1.0;1.0;1.0;1.0 0
c p weight -6 1.0;1.0;1.0;1.0;1.0;1.0 0
c p weight 7 1.0;1.0;1.0;1.0;1.0;1.0 0
c p weight -7 1.0;1.0;1.0;1.0;1.0;1.0 0
c p weight 8 1.0;1.0;1.0;1.0;1.0;1.0 0
c p weight -8 1.0;1.0;1.0;1.0;1.0;1.0 0
c p weight 9 1.0;1.0;1.0;1.0;1.0;1.0 0
c p weight -9 1.0;1.0;1.0;1.0;1.0;1.0 0
c p weight 10 1.0;1.0;1.0;1.0;1.0;1.0 0
c p weight -10 1.0;1.0;1.0;1.0;1.0;1.0 0
c p weight 11 1.0;1.0;1.0;1.0;1.0;1.0 0
c p weight -11 1.0;1.0;1.0;1.0;1.0;1.0 0
c p weight 12 1.0;1.0;1.0;1.0;1.0;1.0 0
c p weight -12 1.0;1.0;1.0;1.0;1.0;1.0 0
c p weight 13 1.0;1.0;1.0;1.0;1.0;1.0 0
c p weight -13 0.0;1.0;1.0;1.0;1.0;1.0 0
c p weight 14 0.5;0.5;0.5;0.5;0.5;0.5 0
c p weight -14 0.5;0.5;0.5;0.5;0.5;0.5 0
c p weight 15 1.0;1.0;1.0;1.0;1.0;1.0 0
c p weight -15 1.0;0.0;1.0;1.0;1.0;1.0 0
c p weight 16 0.5;0.5;0.5;0.5;0.5;0.5 0
c p weight -16 0.5;0.5;0.5;0.5;0.5;0.5 0
c p weight 17 1.0;1.0;1.0;1.0;1.0;1.0 0
c p weight -17 1.0;1.0;0.0;1.0;1.0;1.0 0
c p weight 18 0.5;0.5;0.5;0.5;0.5;0.5 0
c p weight -18 0.5;0.5;0.5;0.5;0.5;0.5 0
c p weight 19 1.0;1.0;1.0;1.0;1.0;1.0 0
c p weight -19 1.0;1.0;1.0;0.0;1.0;1.0 0
c p weight 20 0.5;0.5;0.5;0.5;0.5;0.5 0
c p weight -20 0.5;0.5;0.5;0.5;0.5;0.5 0
c p weight 21 1.0;1.0;1.0;1.0;1.0;1.0 0
c p weight -21 1.0;1.0;1.0;1.0;0.0;1.0 0
c p weight 22 0.5;0.5;0.5;0.5;0.5;0.5 0
c p weight -22 0.5;0.5;0.5;0.5;0.5;0.5 0
c p weight 23 0.5;0.5;0.5;0.5;0.5;0.5 0
c p weight -23 0.5;0.5;0.5;0.5;0.5;0.5 0
c p weight 24 1.0;1.0;1.0;1.0;1.0;1.0 0
c p weight -24 1.0;1.0;1.0;1.0;1.0;0.0 0
c p weight 25 0.5;0.5;0.5;0.5;0.5;0.5 0
c p weight -25 0.5;0.5;0.5;0.5;0.5;0.5 0
c p weight 26 0.5;0.5;0.5;0.5;0.5;0.5 0
c p weight -26 0.5;0.5;0.5;0.5;0.5;0.5 0
c p weight 27 0.5;0.5;0.5;0.5;0.5;0.5 0
c p weight -27 0.5;0.5;0.5;0.5;0.5;0.5 0
c p weight 28 0.5;0.5;0.5;0.5;0.5;0.5 0
c p weight -28 0.5;0.5;0.5;0.5;0.5;0.5 0
c p weight 29 0.5;0.5;0.5;0.5;0.5;0.5 0
c p weight -29 0.5;0.5;0.5;0.5;0.5;0.5 0
c p weight 30 0.5;0.5;0.5;0.5;0.5;0.5 0
c p weight -30 0.5;0.5;0.5;0.5;0.5;0.5 0
c p weight 31 1.0;1.0;1.0;1.0;1.0;1.0 0
c p weight -31 1.0;1.0;1.0;1.0;1.0;1.0 0
c p weight 32 1.0;1.0;1.0;1.0;1.0;1.0 0
c p weight -32 1.0;1.0;1.0;1.0;1.0;1.0 0
c p weight 33 1.0;1.0;1.0;1.0;1.0;1.0 0
c p weight -33 1.0;1.0;1.0;1.0;1.0;1.0 0
c p weight 34 1.0;1.0;1.0;1.0;1.0;1.0 0
c p weight -34 1.0;1.0;1.0;1.0;1.0;1.0 0
c p weight 35 1.0;1.0;1.0;1.0;1.0;1.0 0
c p weight -35 1.0;1.0;1.0;1.0;1.0;1.0 0
c p weight 36 1.0;1.0;1.0;1.0;1.0;1.0 0
c p weight -36 1.0;1.0;1.0;1.0;1.0;1.0 0
c p weight 37 1.0;1.0;1.0;1.0;1.0;1.0 0
c p weight -37 1.0;1.0;1.0;1.0;1.0;1.0 0
c p weight 38 1.0;1.0;1.0;1.0;1.0;1.0 0
c p weight -38 1.0;1.0;1.0;1.0;1.0;1.0 0
c p weight 39 1.0;1.0;1.0;1.0;1.0;1.0 0
c p weight -39 1.0;1.0;1.0;1.0;1.0;1.0 0
c p weight 40 1.0;1.0;1.0;1.0;1.0;1.0 0
c p weight -40 1.0;1.0;1.0;1.0;1.0;1.0 0
c p weight 41 1.0;1.0;1.0;1.0;1.0;1.0 0
c p weight -41 1.0;1.0;1.0;1.0;1.0;1.0 0
c p weight 42 1.0;1.0;1.0;1.0;1.0;1.0 0
c p weight -42 1.0;1.0;1.0;1.0;1.0;1.0 0
c p weight 43 1.0;1.0;1.0;1.0;1.0;1.0 0
c p weight -43 1.0;1.0;1.0;1.0;1.0;1.0 0
c p weight 44 1.0;1.0;1.0;1.0;1.0;1.0 0
c p weight -44 1.0;1.0;1.0;1.0;1.0;1.0 0
c p weight 45 1.0;1.0;1.0;1.0;1.0;1.0 0
c p weight -45 1.0;1.0;1.0;1.0;1.0;1.0 0
c p weight 46 1.0;1.0;1.0;1.0;1.0;1.0 0
c p weight -46 1.0;1.0;1.0;1.0;1.0;1.0 0
c p weight 47 1.0;1.0;1.0;1.0;1.0;1.0 0
c p weight -47 1.0;1.0;1.0;1.0;1.0;1.0 0
c p weight 48 1.0;1.0;1.0;1.0;1.0;1.0 0
c p weight -48 1.0;1.0;1.0;1.0;1.0;1.0 0
c p weight 49 1.0;1.0;1.0;1.0;1.0;1.0 0
c p weight -49 1.0;1.0;1.0;1.0;1.0;1.0 0
c p weight 50 1.0;1.0;1.0;1.0;1.0;1.0 0
c p weight -50 1.0;1.0;1.0;1.0;1.0;1.0 0
c p weight 51 1.0;1.0;1.0;1.0;1.0;1.0 0
c p weight -51 1.0;1.0;1.0;1.0;1.0;1.0 0
c p weight 52 1.0;1.0;1.0;1.0;1.0;1.0 0
c p weight -52 1.0;1.0;1.0;1.0;1.0;1.0 0
c p weight 53 1.0;1.0;1.0;1.0;1.0;1.0 0
c p weight -53 1.0;1.0;1.0;1.0;1.0;1.0 0
c p weight 54 1.0;1.0;1.0;1.0;1.0;1.0 0
c p weight -54 1.0;1.0;1.0;1.0;1.0;1.0 0
c p weight 55 1.0;1.0;1.0;1.0;1.0;1.0 0
c p weight -55 1.0;1.0;1.0;1.0;1.0;1.0 0
c p weight 56 1.0;1.0;1.0;1.0;1.0;1.0 0
c p weight -56 1.0;1.0;1.0;1.0;1.0;1.0 0
c p weight 57 1.0;1.0;1.0;1.0;1.0;1.0 0
c p weight -57 1.0;1.0;1.0;1.0;1.0;1.0 0
c p weight 58 1.0;1.0;1.0;1.0;1.0;1.0 0
c p weight -58 1.0;1.0;1.0;1.0;1.0;1.0 0
c p weight 59 1.0;1.0;1.0;1.0;1.0;1.0 0
c p weight -59 1.0;1.0;1.0;1.0;1.0;1.0 0
c p weight 60 1.0;1.0;1.0;1.0;1.0;1.0 0
c p weight -60 1.0;1.0;1.0;1.0;1.0;1.0 0
c p weight 61 1.0;1.0;1.0;1.0;1.0;1.0 0
c p weight -61 1.0;1.0;1.0;1.0;1.0;1.0 0
c p weight 62 1.0;1.0;1.0;1.0;1.0;1.0 0
c p weight -62 1.0;1.0;1.0;1.0;1.0;1.0 0
c p weight 63 1.0;1.0;1.0;1.0;1.0;1.0 0
c p weight -63 1.0;1.0;1.0;1.0;1.0;1.0 0
c p weight 64 1.0;1.0;1.0;1.0;1.0;1.0 0
c p weight -64 1.0;1.0;1.0;1.0;1.0;1.0 0
c p weight 65 1.0;1.0;1.0;1.0;1.0;1.0 0
c p weight -65 1.0;1.0;1.0;1.0;1.0;1.0 0
c p weight 66 1.0;1.0;1.0;1.0;1.0;1.0 0
c p weight -66 1.0;1.0;1.0;1.0;1.0;1.0 0
c p semirings aspmc.semirings.probabilistic 0
c p quantify 1 2 3 4 5 6 7 8 9 10 11 12 13 14 15 16 17 18 19 20 21 22 23 24 25 26 27 28 29 30 31 32 33 34 35 36 37 38 39 40 41 42 43 44 45 46 47 48 49 50 51 52 53 54 55 56 57 58 59 60 61 62 63 64 65 66 0
c p auxilliary 1 2 3 4 5 6 7 8 9 10 11 12 31 32 33 34 35 36 37 38 39 40 41 42 43 44 45 46 47 48 49 50 51 52 53 54 55 56 57 58 59 60 61 62 63 64 65 66 0
